14465
9414
25181
28507
23114
28755
4836
14515
31999
316
16801
17120
15051
4060
18025
15945
16197
21964
19370
6578
9276
30866
26119
26863
12947
3095
19089
1408
21367
15985
32289
11603
24817
698
10634
9573
17326
29131
23499
10362
30813
23000
8581
18609
27077
7438
14988
16290
13071
12245
29472
24871
27598
12502
13137
13881
24591
12717
30095
5062
15378
25848
23393
15912
19220
7223
3266
20852
12620
4916
22222
11649
10781
22562
18626
25136
22308
13809
26913
11903
5196
6506
751
8627
6518
11116
16997
5675
30220
4777
7395
7623
11524
2468
4188
14947
28954
2275
8959
13594
